msmse from ab.in
1.0
 3.2430944463499642    0.0000000000000000    0.0000000000000000
-1.6215472231749821    2.8086021774112981    0.0000000000000000
 0.0000000000000000    0.0000000000000000   39.1818803292834161
Mo Se S
2 2 2
Direct
0.3333333333333333  0.6666666666666666  0.0842169776690000
0.6666666666666667  0.3333333333333333  0.2422572444300000
0.3333333333333333  0.6666666666666666  0.1995238704700000
0.3333333333333333  0.6666666666666666  0.2849805655400000
0.6666666666666667  0.3333333333333333  0.1234833703200000
0.6666666666666667  0.3333333333333333  0.0448833825980000

