#Definition of lattice parameters
#********************************
    acell  1.0 1.0 1.0 Angstrom 
    rprim    3.2430944463499642    0.0000000000000000    0.0000000000000000
            -1.6215472231749821    2.8086021774112981    0.0000000000000000
             0.0000000000000000    0.0000000000000000   39.1818803292834161
                      
#Definition of atomic positions and types
#*************************************
   brvltt      -1
   spgaxor     1
   natom       6
   ntypat 3
#         Mo Se S
  znucl   42 34 16
  typat   2*1 2*2 2*3
xred 0.3333333333333333  0.6666666666666666  0.0842169776690000
     0.6666666666666667  0.3333333333333333  0.2422572444300000
     0.3333333333333333  0.6666666666666666  0.1995238704700000
     0.3333333333333333  0.6666666666666666  0.2849805655400000
     0.6666666666666667  0.3333333333333333  0.1234833703200000
     0.6666666666666667  0.3333333333333333  0.0448833825980000

